g3 0 1 0	# problem d3n16R8R9d01d05
 16 16 1 0 8	# vars, constraints, objectives, ranges, eqns
 5 1	# nonlinear constraints, objectives
 0 0	# network constraints: nonlinear, linear
 16 16 16	# nonlinear vars in constraints, objectives, both
 0 0 0 1	# linear network variables; functions; arith, flags
 0 0 0 0 0	# discrete variables: binary, integer, nonlinear (b,c,o)
 192 16	# nonzeros in Jacobian, gradients
 0 0	# max name lengths: constraints, variables
 0 0 0 0 0	# common exprs: b,c,o,c1,o1
b
0 0.07 2.6
0 0.91 2.5
0 0.92 2.23
0 0.92 2.48
0 0.95 2.36
0 0.49 2.15
0 0.24 2.56
0 0.9 2.12
0 0.91 2.92
0 0.06 2.62
0 0.12 2.15
0 0.93 2.22
0 0.32 2.87
0 0.02 2.46
0 0.01 2.56
0 0.51 2.74
r
2 226.784
2 1376.78
2 129.922
2 1207.84
2 242.294
4 54.785
4 21.579
4 54.249
4 32.875
4 80.591
4 67.217
4 63.23
4 46.604
2 88.113
2 113.462
2 102.148
C0
o54
11
o2
o2
n0.32
v0
v2
o2
o2
n8.93
v0
v13
o2
o2
n2.55
v1
v13
o2
o2
n5.98
v2
v9
o2
o2
n5.17
v2
v13
o2
o2
n1.83
v5
v5
o16
o2
o2
n6.14
v7
v7
o2
o2
n6.2
v7
v9
o2
o2
n6.1
v8
v14
o2
o2
n3.95
v9
v13
o2
o2
n9.05
v10
v12
C1
o54
95
o16
o2
o2
n0.07
v0
v2
o2
o2
n8.19
v0
v13
o2
o2
n9.23
v1
v13
o2
o2
n7.57
v2
v9
o2
o2
n2.26
v2
v13
o2
o2
n6.06
v5
v5
o2
o2
n7.49
v7
v7
o16
o2
o2
n8.46
v7
v9
o2
o2
n4.86
v8
v14
o2
o2
n3.09
v9
v13
o2
o2
n1.49
v10
v12
o2
o2
o2
n5.46
v0
v0
v9
o2
o2
o2
n7.66
v0
v1
v3
o2
o2
o2
n3.57
v0
v1
v6
o2
o2
o2
n6.81
v0
v2
v5
o2
o2
o2
n1.37
v0
v3
v7
o2
o2
o2
n9.04
v0
v3
v10
o16
o2
o2
o2
n1.83
v0
v3
v15
o2
o2
o2
n1.8
v0
v4
v5
o16
o2
o2
o2
n6.46
v0
v4
v13
o2
o2
o2
n7.14
v0
v5
v6
o16
o2
o2
o2
n2.42
v0
v5
v15
o2
o2
o2
n9.36
v0
v6
v8
o2
o2
o2
n4.29
v0
v7
v8
o2
o2
o2
n2.23
v0
v8
v12
o16
o2
o2
o2
n1.56
v0
v15
v15
o2
o2
o2
n9.9
v1
v1
v9
o2
o2
o2
n8.79
v1
v2
v10
o2
o2
o2
n0.33
v1
v3
v7
o2
o2
o2
n9.82
v1
v3
v9
o2
o2
o2
n5.65
v1
v3
v13
o2
o2
o2
n2.57
v1
v4
v15
o2
o2
o2
n8.12
v1
v5
v13
o2
o2
o2
n6.11
v1
v6
v12
o2
o2
o2
n6.15
v1
v6
v15
o2
o2
o2
n6.48
v1
v8
v8
o2
o2
o2
n9.05
v1
v8
v9
o2
o2
o2
n2.83
v1
v9
v12
o2
o2
o2
n4.98
v1
v10
v11
o2
o2
o2
n0.47
v1
v10
v13
o2
o2
o2
n0.74
v1
v13
v15
o2
o2
o2
n2.35
v1
v14
v14
o2
o2
o2
n7.83
v2
v2
v5
o2
o2
o2
n5.6
v2
v2
v6
o2
o2
o2
n3.59
v2
v3
v9
o2
o2
o2
n4.65
v2
v3
v15
o2
o2
o2
n1.67
v2
v5
v6
o2
o2
o2
n7.43
v2
v6
v7
o2
o2
o2
n0.7
v2
v7
v13
o2
o2
o2
n6.36
v2
v8
v8
o2
o2
o2
n5.36
v2
v9
v9
o2
o2
o2
n0.53
v2
v12
v14
o2
o2
o2
n8.94
v2
v13
v15
o2
o2
o2
n0.83
v3
v3
v13
o2
o2
o2
n1.3
v3
v5
v5
o2
o2
o2
n4.33
v3
v6
v7
o2
o2
o2
n1.42
v3
v6
v12
o2
o2
o2
n9.71
v3
v7
v14
o2
o2
o2
n8.55
v3
v8
v8
o2
o2
o2
n0.19
v3
v8
v12
o2
o2
o2
n1.05
v3
v8
v15
o2
o2
o2
n5.53
v3
v10
v13
o2
o2
o2
n6.97
v3
v11
v11
o16
o2
o2
o2
n9.71
v3
v13
v14
o2
o2
o2
n5.44
v3
v13
v15
o2
o2
o2
n5.73
v4
v4
v15
o16
o2
o2
o2
n2.85
v4
v5
v8
o2
o2
o2
n4.3
v4
v5
v12
o2
o2
o2
n3.06
v4
v5
v13
o16
o2
o2
o2
n7.78
v4
v5
v14
o2
o2
o2
n5.56
v4
v6
v13
o2
o2
o2
n6.03
v4
v7
v10
o16
o2
o2
o2
n0.61
v4
v7
v15
o2
o2
o2
n5.71
v4
v8
v9
o2
o2
o2
n5.62
v4
v9
v11
o2
o2
o2
n9.65
v4
v9
v13
o2
o2
o2
n1.61
v4
v11
v14
o2
o2
o2
n7.72
v4
v12
v13
o2
o2
o2
n3.94
v5
v5
v10
o2
o2
o2
n5.94
v5
v6
v6
o2
o2
o2
n6.35
v5
v6
v7
o2
o2
o2
n5.2
v5
v10
v11
o2
o2
o2
n2.35
v5
v10
v14
o2
o2
o2
n6.3
v5
v11
v15
o2
o2
o2
n3
v5
v12
v13
o2
o2
o2
n2.86
v5
v14
v14
o16
o2
o2
o2
n5.29
v6
v10
v15
o2
o2
o2
n8.52
v7
v9
v12
o2
o2
o2
n9.95
v8
v8
v9
o2
o2
o2
n0.22
v8
v9
v12
o2
o2
o2
n2.92
v8
v10
v10
o2
o2
o2
n3.89
v8
v13
v13
o2
o2
o2
n9.51
v9
v9
v10
o16
o2
o2
o2
n4.3
v10
v12
v14
o2
o2
o2
n5.29
v10
v14
v14
C2
o54
11
o2
o2
n6.17
v0
v2
o2
o2
n5.77
v0
v13
o2
o2
n1.07
v1
v13
o2
o2
n4.77
v2
v9
o2
o2
n8.94
v2
v13
o2
o2
n3.11
v5
v5
o2
o2
n5.72
v7
v7
o16
o2
o2
n7.6
v7
v9
o2
o2
n2.57
v8
v14
o2
o2
n5.17
v9
v13
o2
o2
n0.76
v10
v12
C3
o54
95
o2
o2
n2.99
v0
v2
o2
o2
n5.47
v0
v13
o2
o2
n5.09
v1
v13
o2
o2
n9.5
v2
v9
o2
o2
n9.52
v2
v13
o2
o2
n2.87
v5
v5
o2
o2
n5.23
v7
v7
o2
o2
n4.8
v7
v9
o2
o2
n2.06
v8
v14
o2
o2
n4.38
v9
v13
o16
o2
o2
n6.83
v10
v12
o2
o2
o2
n7.96
v0
v0
v9
o16
o2
o2
o2
n2.39
v0
v1
v3
o2
o2
o2
n3.43
v0
v1
v6
o2
o2
o2
n8.81
v0
v2
v5
o2
o2
o2
n2.96
v0
v3
v7
o2
o2
o2
n0.58
v0
v3
v10
o2
o2
o2
n0.8
v0
v3
v15
o2
o2
o2
n9.1
v0
v4
v5
o2
o2
o2
n7.64
v0
v4
v13
o2
o2
o2
n4.29
v0
v5
v6
o2
o2
o2
n8.04
v0
v5
v15
o2
o2
o2
n4.59
v0
v6
v8
o2
o2
o2
n2.7
v0
v7
v8
o2
o2
o2
n9.27
v0
v8
v12
o2
o2
o2
n1.92
v0
v15
v15
o2
o2
o2
n2.2
v1
v1
v9
o2
o2
o2
n1.89
v1
v2
v10
o2
o2
o2
n1.1
v1
v3
v7
o2
o2
o2
n0.38
v1
v3
v9
o2
o2
o2
n1.32
v1
v3
v13
o2
o2
o2
n3.42
v1
v4
v15
o2
o2
o2
n8.25
v1
v5
v13
o2
o2
o2
n9.48
v1
v6
v12
o2
o2
o2
n7.4
v1
v6
v15
o2
o2
o2
n2.69
v1
v8
v8
o2
o2
o2
n6.25
v1
v8
v9
o2
o2
o2
n1.8
v1
v9
v12
o2
o2
o2
n6.84
v1
v10
v11
o2
o2
o2
n6.24
v1
v10
v13
o2
o2
o2
n3.29
v1
v13
v15
o2
o2
o2
n6
v1
v14
v14
o2
o2
o2
n3.16
v2
v2
v5
o2
o2
o2
n6.89
v2
v2
v6
o2
o2
o2
n6.91
v2
v3
v9
o2
o2
o2
n7.6
v2
v3
v15
o2
o2
o2
n4.32
v2
v5
v6
o2
o2
o2
n0.27
v2
v6
v7
o2
o2
o2
n2.05
v2
v7
v13
o2
o2
o2
n1.09
v2
v8
v8
o2
o2
o2
n1.41
v2
v9
v9
o2
o2
o2
n2.44
v2
v12
v14
o16
o2
o2
o2
n0.29
v2
v13
v15
o16
o2
o2
o2
n3.23
v3
v3
v13
o2
o2
o2
n8.49
v3
v5
v5
o2
o2
o2
n8.87
v3
v6
v7
o2
o2
o2
n0.35
v3
v6
v12
o2
o2
o2
n7.62
v3
v7
v14
o2
o2
o2
n3.77
v3
v8
v8
o2
o2
o2
n4.65
v3
v8
v12
o16
o2
o2
o2
n9.86
v3
v8
v15
o2
o2
o2
n0.56
v3
v10
v13
o16
o2
o2
o2
n1.95
v3
v11
v11
o2
o2
o2
n5.89
v3
v13
v14
o16
o2
o2
o2
n8.37
v3
v13
v15
o2
o2
o2
n8.05
v4
v4
v15
o2
o2
o2
n7.85
v4
v5
v8
o16
o2
o2
o2
n2.45
v4
v5
v12
o2
o2
o2
n1.61
v4
v5
v13
o2
o2
o2
n4.17
v4
v5
v14
o2
o2
o2
n1.34
v4
v6
v13
o2
o2
o2
n1.89
v4
v7
v10
o2
o2
o2
n6.98
v4
v7
v15
o2
o2
o2
n0.61
v4
v8
v9
o2
o2
o2
n3.43
v4
v9
v11
o2
o2
o2
n4.64
v4
v9
v13
o2
o2
o2
n0.31
v4
v11
v14
o2
o2
o2
n7.53
v4
v12
v13
o2
o2
o2
n3.67
v5
v5
v10
o2
o2
o2
n0.46
v5
v6
v6
o2
o2
o2
n3.9
v5
v6
v7
o2
o2
o2
n5.6
v5
v10
v11
o2
o2
o2
n8.78
v5
v10
v14
o2
o2
o2
n6.12
v5
v11
v15
o2
o2
o2
n5.74
v5
v12
v13
o2
o2
o2
n9.31
v5
v14
v14
o2
o2
o2
n2.51
v6
v10
v15
o2
o2
o2
n4.39
v7
v9
v12
o2
o2
o2
n0.03
v8
v8
v9
o2
o2
o2
n1.6
v8
v9
v12
o2
o2
o2
n6.84
v8
v10
v10
o2
o2
o2
n4.17
v8
v13
v13
o2
o2
o2
n8.95
v9
v9
v10
o2
o2
o2
n9.6
v10
v12
v14
o2
o2
o2
n4.28
v10
v14
v14
C4
o54
11
o2
o2
n6.95
v0
v2
o2
o2
n7.36
v0
v13
o2
o2
n6.17
v1
v13
o2
o2
n8.57
v2
v9
o2
o2
n0.18
v2
v13
o2
o2
n4.86
v5
v5
o2
o2
n8.95
v7
v7
o2
o2
n6.87
v7
v9
o2
o2
n6.86
v8
v14
o2
o2
n0.9
v9
v13
o2
o2
n1.07
v10
v12
C5
n0
C6
n0
C7
n0
C8
n0
C9
n0
C10
n0
C11
n0
C12
n0
C13
n0
C14
n0
C15
n0
O0 0
o54
95
o2
o2
n1.34
v0
v2
o2
o2
n6.64
v0
v13
o2
o2
n0.63
v1
v13
o2
o2
n2.94
v2
v9
o2
o2
n1.52
v2
v13
o2
o2
n2.62
v5
v5
o2
o2
n5.38
v7
v7
o2
o2
n2.23
v7
v9
o2
o2
n9.02
v8
v14
o2
o2
n5.71
v9
v13
o2
o2
n0.58
v10
v12
o2
o2
o2
n9.44
v0
v0
v9
o2
o2
o2
n7.2
v0
v1
v3
o2
o2
o2
n4.35
v0
v1
v6
o2
o2
o2
n6.24
v0
v2
v5
o2
o2
o2
n9.06
v0
v3
v7
o2
o2
o2
n6.49
v0
v3
v10
o2
o2
o2
n3.26
v0
v3
v15
o2
o2
o2
n0.94
v0
v4
v5
o2
o2
o2
n5.34
v0
v4
v13
o2
o2
o2
n7.75
v0
v5
v6
o2
o2
o2
n3.25
v0
v5
v15
o2
o2
o2
n0.82
v0
v6
v8
o16
o2
o2
o2
n2.8
v0
v7
v8
o2
o2
o2
n6.78
v0
v8
v12
o16
o2
o2
o2
n2.36
v0
v15
v15
o2
o2
o2
n9.7
v1
v1
v9
o2
o2
o2
n8
v1
v2
v10
o2
o2
o2
n0.21
v1
v3
v7
o2
o2
o2
n8.29
v1
v3
v9
o2
o2
o2
n0.62
v1
v3
v13
o16
o2
o2
o2
n2.55
v1
v4
v15
o2
o2
o2
n2.51
v1
v5
v13
o2
o2
o2
n1.98
v1
v6
v12
o2
o2
o2
n8.44
v1
v6
v15
o2
o2
o2
n7.34
v1
v8
v8
o2
o2
o2
n4.32
v1
v8
v9
o2
o2
o2
n2.54
v1
v9
v12
o2
o2
o2
n3.88
v1
v10
v11
o2
o2
o2
n8.07
v1
v10
v13
o2
o2
o2
n2.05
v1
v13
v15
o2
o2
o2
n3.34
v1
v14
v14
o2
o2
o2
n8.62
v2
v2
v5
o2
o2
o2
n2.01
v2
v2
v6
o2
o2
o2
n8.7
v2
v3
v9
o2
o2
o2
n9.41
v2
v3
v15
o2
o2
o2
n1.82
v2
v5
v6
o2
o2
o2
n6
v2
v6
v7
o2
o2
o2
n5.87
v2
v7
v13
o2
o2
o2
n6.09
v2
v8
v8
o2
o2
o2
n7.78
v2
v9
v9
o16
o2
o2
o2
n5.71
v2
v12
v14
o2
o2
o2
n7.17
v2
v13
v15
o2
o2
o2
n8.88
v3
v3
v13
o2
o2
o2
n4.9
v3
v5
v5
o2
o2
o2
n6.14
v3
v6
v7
o2
o2
o2
n2.72
v3
v6
v12
o16
o2
o2
o2
n4.6
v3
v7
v14
o2
o2
o2
n5.86
v3
v8
v8
o2
o2
o2
n3.39
v3
v8
v12
o2
o2
o2
n4.98
v3
v8
v15
o2
o2
o2
n3.76
v3
v10
v13
o2
o2
o2
n9.08
v3
v11
v11
o16
o2
o2
o2
n7.67
v3
v13
v14
o2
o2
o2
n5.88
v3
v13
v15
o2
o2
o2
n4.19
v4
v4
v15
o2
o2
o2
n1.4
v4
v5
v8
o16
o2
o2
o2
n7.54
v4
v5
v12
o2
o2
o2
n5.05
v4
v5
v13
o2
o2
o2
n5.95
v4
v5
v14
o2
o2
o2
n2.04
v4
v6
v13
o2
o2
o2
n5.42
v4
v7
v10
o2
o2
o2
n9.46
v4
v7
v15
o2
o2
o2
n7.4
v4
v8
v9
o2
o2
o2
n7.79
v4
v9
v11
o2
o2
o2
n4.39
v4
v9
v13
o16
o2
o2
o2
n4.22
v4
v11
v14
o2
o2
o2
n2.67
v4
v12
v13
o2
o2
o2
n9.47
v5
v5
v10
o2
o2
o2
n6.12
v5
v6
v6
o2
o2
o2
n4.62
v5
v6
v7
o2
o2
o2
n0.21
v5
v10
v11
o2
o2
o2
n9.57
v5
v10
v14
o2
o2
o2
n0.21
v5
v11
v15
o16
o2
o2
o2
n9.51
v5
v12
v13
o2
o2
o2
n2.74
v5
v14
v14
o2
o2
o2
n1.27
v6
v10
v15
o2
o2
o2
n4.64
v7
v9
v12
o2
o2
o2
n5.81
v8
v8
v9
o2
o2
o2
n8.32
v8
v9
v12
o2
o2
o2
n8.59
v8
v10
v10
o2
o2
o2
n7.54
v8
v13
v13
o16
o2
o2
o2
n4.37
v9
v9
v10
o2
o2
o2
n2.79
v10
v12
v14
o2
o2
o2
n7.86
v10
v14
v14
k15
13
26
38
48
58
70
80
94
107
119
133
145
156
169
181
J0 16
0 2.92
1 9.94
2 1.87
3 8.98
4 6.29
5 5.63
6 5.63
7 6.77
8 9.02
9 7.31
10 4.51
11 5.57
12 -0.46
13 8.58
14 5.75
15 6.32
J1 16
0 3.17
1 7.63
2 5.65
3 9.75
4 8.76
5 8
6 2.79
7 8.45
8 2.91
9 0.5
10 9.68
11 4.13
12 7.27
13 6.27
14 3.4
15 2.9
J2 16
0 0.59
1 9.24
2 -7.37
3 3.8
4 3.08
5 3.16
6 3.12
7 2.98
8 1.8
9 2.3
10 3.34
11 5.31
12 0.46
13 0.83
14 2
15 3.5
J3 16
0 9.71
1 -6.68
2 9.26
3 8.34
4 7.34
5 0.05
6 7.58
7 6.87
8 5.77
9 5.18
10 8.28
11 1.26
12 1.03
13 -4.1
14 7.93
15 4.32
J4 16
0 6.27
1 0.92
2 7.4
3 8.81
4 7.07
5 6.06
6 4.99
7 4.88
8 3.25
9 4.37
10 8.16
11 0.25
12 0.07
13 5.05
14 7.43
15 7.78
J5 8
0 7.27
2 4.91
7 5.84
8 7.15
9 4.48
10 2.82
11 3.38
14 0.24
J6 8
5 9.44
6 0.57
8 -6.63
9 6.1
12 8.94
13 5.1
14 4.03
15 -7.95
J7 8
1 -1.96
3 0.76
4 6.5
5 9.86
7 8.6
8 7.37
10 0.63
13 3.8
J8 8
0 2.08
1 3.24
7 1.21
8 -8.52
10 6.99
11 7.74
12 9.79
13 2.68
J9 8
0 7.32
1 9.63
2 4.43
3 6.23
5 7.42
7 4.03
11 5.41
15 7.65
J10 8
0 8.41
1 2.83
7 7.01
8 7.31
9 2.8
10 7.38
13 6.94
14 4.55
J11 8
1 9.17
2 5.02
4 1.34
5 7.78
10 6.21
12 1.44
14 9.04
15 3.84
J12 8
0 7.74
2 -4
6 9.9
7 0.98
9 3.89
10 5.65
11 7.46
13 3.11
J13 16
0 3.5
1 0.13
2 0.32
3 2.14
4 0.86
5 9.06
6 9.58
7 6.63
8 8.85
9 2.67
10 6.79
11 -9.85
12 4.75
13 5.86
14 -1.11
15 9.93
J14 16
0 5.51
1 2.75
2 3.55
3 7.88
4 7.85
5 5.63
6 3.04
7 8.38
8 7.58
9 6.42
10 -0.93
11 4.65
12 5.65
13 4.3
14 6.16
15 -4.03
J15 16
0 1.98
1 5.65
2 1.76
3 1.54
4 4.65
5 8.51
6 6.15
7 4.44
8 3.27
9 6.67
10 -0.03
11 4.01
12 8.33
13 6.76
14 0.66
15 3.84
G0 16
0 3.4
1 4.14
2 0.69
3 3.68
4 2.54
5 7.61
6 5.02
7 8.58
8 3.7
9 -2.75
10 0.5
11 4.71
12 0.12
13 6.9
14 7.23
15 7.59
